%%%mzn-stat: initTime=0.017866377
%%%mzn-stat: objective=158
%%%mzn-stat: nodes=2560
%%%mzn-stat: restarts=0
%%%mzn-stat: peakDepth=618
%%%mzn-stat: solveTime=0.836774023
%%%mzn-stat: variables=1754
%%%mzn-stat: propagators=1397
%%%mzn-stat: failures=1129
%%%mzn-stat: propagations=169339
%%%mzn-stat: nogoods=1129
%%%mzn-stat: AverageConflictSize=18.70947741364039
%%%mzn-stat: NumUnitNogoodsLearned=157
%%%mzn-stat: AverageLearnedNogoodLength=91.23383525243578
%%%mzn-stat: AverageBacktrackAmount=0
%%%mzn-stat: AverageLbd=10.074402125775022
%%%mzn-stat-end
maxleg = 158;
succ = array1d(1..100,[91, 51, 42, 37, 19, 16, 47, 83, 82, 55, 23, 80, 61, 52, 77, 7, 95, 17, 6, 65, 69, 41, 97, 57, 66, 31, 33, 59, 20, 25, 99, 30, 73, 98, 85, 79, 94, 4, 84, 11, 87, 44, 70, 40, 1, 15, 72, 8, 86, 93, 81, 76, 12, 26, 14, 53, 63, 56, 58, 36, 74, 60, 46, 54, 96, 71, 43, 49, 92, 78, 5, 9, 13, 64, 50, 27, 67, 68, 24, 39, 75, 88, 90, 29, 18, 22, 100, 3, 34, 89, 62, 48, 10, 2, 28, 38, 21, 45, 32, 35]);
% time elapsed: 7.58 s
----------
==========
% time elapsed: 7.58 s
%%%mzn-stat: initTime=0.017866377
%%%mzn-stat: objective=158
%%%mzn-stat: nodes=2560
%%%mzn-stat: restarts=0
%%%mzn-stat: peakDepth=618
%%%mzn-stat: solveTime=0.836778595
%%%mzn-stat: variables=1754
%%%mzn-stat: propagators=1397
%%%mzn-stat: failures=1129
%%%mzn-stat: propagations=169339
%%%mzn-stat: nogoods=1129
%%%mzn-stat: AverageConflictSize=18.70947741364039
%%%mzn-stat: NumUnitNogoodsLearned=157
%%%mzn-stat: AverageLearnedNogoodLength=91.23383525243578
%%%mzn-stat: AverageBacktrackAmount=0
%%%mzn-stat: AverageLbd=10.074402125775022
%%%mzn-stat-end
